p cnf 66 186
c 14 15 3 3 9 3 3 17 3 12 5 3 12 13 6 3 5 5 3 3 3 3 6 3 3 5 3 3 4 4 3 6 

1 -2 0
3 -2 0
4 -2 0
5 -6 0
7 -6 0
8 -6 0
9 -6 0
10 -6 0
11 -6 0
12 -6 0
13 -14 0
15 -14 0
16 -14 0
2 6 14 0
17 12 0
-18 -19 -20 -21 -22 -23 -11 -12 0
19 -24 0
22 -24 0
23 -24 0
11 -24 0
21 -25 0
23 -25 0
18 -26 0
23 -26 0
11 -26 0
12 -26 0
19 -27 0
22 -27 0
12 -27 0
23 -28 0
17 -28 0
5 -25 0
29 -25 0
8 -26 0
30 -31 0
32 -33 0
7 -28 0
8 -28 0
22 -28 0
11 -28 0
34 -35 0
36 -35 0
37 -35 0
33 28 35 0
38 20 0
21 8 0
9 22 0
11 29 0
18 -28 0
38 -28 0
39 -40 0
41 -40 0
42 -40 0
32 -40 0
43 -40 0
44 -40 0
8 -27 0
10 -27 0
29 -27 0
34 -31 0
45 -31 0
46 -31 0
47 -31 0
16 -31 0
48 -31 0
49 -31 0
40 27 31 0
36 -14 0
49 -14 0
34 -50 0
46 51 0
52 47 0
37 49 0
-34 -45 -51 -53 -47 -54 -36 -49 0
-13 -15 -51 -30 -52 -54 -48 -37 0
54 -35 0
47 -55 0
54 -55 0
36 -55 0
54 -56 0
37 -56 0
36 -50 0
34 13 0
54 16 0
36 48 0
-34 -15 -46 -53 -52 -16 -36 -37 0
52 -50 0
15 -35 0
46 -35 0
47 -35 0
1 -57 0
41 -57 0
58 -57 0
42 -57 0
32 -57 0
4 -57 0
44 -57 0
5 -24 0
38 -24 0
8 -24 0
49 -55 0
57 24 55 0
39 -59 0
60 -59 0
4 -59 0
44 -59 0
7 -26 0
38 -26 0
9 -26 0
15 -50 0
46 -50 0
30 -50 0
54 -50 0
49 -50 0
59 26 50 0
15 45 0
53 30 0
-13 -15 -51 -30 -52 -16 -48 -49 0
51 -14 0
30 -14 0
52 -14 0
30 -35 0
12 -24 0
30 -55 0
39 1 0
-1 -3 -61 -42 -60 -62 -43 -44 0
42 -33 0
43 -63 0
42 -59 0
64 62 0
4 43 0
-39 -41 -61 -65 -32 -64 -4 -44 0
41 -63 0
64 -63 0
39 -33 0
3 -33 0
66 -33 0
65 -63 0
58 -59 0
58 -40 0
3 41 0
58 61 0
62 -2 0
58 -33 0
58 -63 0
3 -59 0
66 44 0
-1 -3 -61 -42 -60 -64 -43 -66 0
64 -33 0
64 -57 0
66 -63 0
64 -59 0
4 -33 0
44 -2 0
60 -63 0
65 42 0
61 -2 0
42 -2 0
7 19 0
-5 -7 -20 -8 -9 -23 -29 -17 0
20 -6 0
9 -25 0
17 -25 0
18 5 0
23 10 0
-5 -7 -20 -8 -9 -10 -29 -12 0
13 -55 0
45 -55 0
46 -55 0
60 32 0
-39 -3 -58 -65 -60 -62 -4 -66 0
60 -2 0
62 -40 0
-18 -7 -38 -21 -9 -10 -11 -17 0
38 -25 0
18 -27 0
38 -27 0
13 -56 0
53 -56 0
52 -56 0
1 -63 0
19 -25 0
45 -56 0
46 -56 0
48 -56 0
63 25 56 0
